db/data/1701315847148801352510712215111253914683.z3.out
-------------------
2500.178856961
